(set-logic LIA)

(declare-const y Int)
(declare-const y! Int)
(declare-const x Int)
(declare-const x! Int)
(declare-const tmp Int)
(declare-const tmp! Int)
(declare-const n Int)
(declare-const n! Int)
(declare-const i Int)
(declare-const i! Int)

(declare-const y_41 Int)
(declare-const y_33 Int)
(declare-const y_31 Int)
(declare-const y_27 Int)
(declare-const x_40 Int)
(declare-const x_32 Int)
(declare-const x_30 Int)
(declare-const x_26 Int)
(declare-const n_0 Int)
(declare-const i_38 Int)
(declare-const i_28 Int)
(declare-const i_25 Int)

(define-fun inv-f((i Int)(n Int)(tmp Int)(x Int)(y Int)) Bool
